GLPSOL--GLPK LP/MIP Solver 5.0
Parameter(s) specified in the command line:
 --lp ../modeles/5_69.lp --log 5_69.log
Reading problem data from '../modeles/5_69.lp'...
366 rows, 700 columns, 2440 non-zeros
345 integer variables, all of which are binary
1077 lines were read
GLPK Integer Optimizer 5.0
366 rows, 700 columns, 2440 non-zeros
345 integer variables, all of which are binary
Preprocessing...
350 constraint coefficient(s) were reduced
366 rows, 695 columns, 2435 non-zeros
345 integer variables, all of which are binary
Scaling...
 A: min|aij| =  8.402e-04  max|aij| =  4.000e+00  ratio =  4.761e+03
GM: min|aij| =  1.204e-01  max|aij| =  8.307e+00  ratio =  6.900e+01
EQ: min|aij| =  1.449e-02  max|aij| =  1.000e+00  ratio =  6.900e+01
2N: min|aij| =  1.344e-02  max|aij| =  1.695e+00  ratio =  1.261e+02
Constructing initial basis...
Size of triangular part is 366
Solving LP relaxation...
GLPK Simplex Optimizer 5.0
366 rows, 695 columns, 2435 non-zeros
      0: obj =   1.000000000e+01 inf =   2.450e+01 (11)
     54: obj =   4.980042017e-01 inf =   0.000e+00 (0)
*   169: obj =  -2.233016304e+00 inf =   4.198e-16 (0)
OPTIMAL LP SOLUTION FOUND
Integer optimization begins...
Long-step dual simplex will be used
+   169: mip =     not found yet >=              -inf        (1; 0)
+   241: >>>>>  -2.233016304e+00 >=  -2.233016304e+00 < 0.1% (71; 0)
+   241: mip =  -2.233016304e+00 >=     tree is empty   0.0% (0; 141)
INTEGER OPTIMAL SOLUTION FOUND
Time used:   0.0 secs
Memory used: 1.1 Mb (1107393 bytes)
